Reading model...
...model read.
creating competitive generators file...
...competitive generators recorded.
Loading data...
.. real-time data read.
Compiling instance...
...instance created.
Creating Offer Mitigation (model will solve as dispatch if TRUE)...
NOTE: storage offers will not be mitigated
...storage offer mitigation file created
Converting model to MPEC...
...converted
NOTE: initial MIP solve with only storage competitive to get feasible solution
Solving...

Welcome to IBM(R) ILOG(R) CPLEX(R) Interactive Optimizer 12.9.0.0
  with Simplex, Mixed Integer & Barrier Optimizers
5725-A06 5725-A29 5724-Y48 5724-Y49 5724-Y54 5724-Y55 5655-Y21
Copyright IBM Corp. 1988, 2019.  All Rights Reserved.

Type 'help' for a list of available commands.
Type 'help' followed by a command name for more
information on commands.

CPLEX> Logfile 'cplex.log' closed.
Logfile 'C:\Users\llavin\Desktop\test85\logs\tmp7zr1vwc4.cplex.log' open.
CPLEX> New value for parallel optimization mode: -1
CPLEX> New value for mixed integer optimality gap tolerance: 0.001
CPLEX> New value for deterministic time limit in ticks: 100000
CPLEX> Problem 'C:\Users\llavin\Desktop\test85\logs\tmpyyjucvoh.pyomo.lp' read.
Read time = 0.53 sec. (27.87 ticks)
CPLEX> Problem name         : C:\Users\llavin\Desktop\test85\logs\tmpyyjucvoh.pyomo.lp
Objective sense      : Maximize
Variables            :  107779  [Nneg: 1,  Box: 44054,  Free: 8928,
                                 Binary: 54796]
Objective nonzeros   :   19058
Linear constraints   :  246995  [Less: 82866,  Greater: 118424,  Equal: 45705]
  Nonzeros           :  582461
  RHS nonzeros       :  136272

Variables            : Min LB: -5000.000        Max UB: 1000000.       
Objective nonzeros   : Min   : 0.1944444        Max   : 2500.000       
Linear constraints   :
  Nonzeros           : Min   : 0.1944444        Max   : 1000000.       
  RHS nonzeros       : Min   : 0.1944444        Max   : 1000000.       
CPLEX> CPXPARAM_Parallel                                -1
CPXPARAM_DetTimeLimit                            100000
CPXPARAM_MIP_Tolerances_MIPGap                   0.001
Tried aggregator 3 times.
MIP Presolve eliminated 173005 rows and 33974 columns.
MIP Presolve added 7737 rows and 0 columns.
MIP Presolve modified 52182 coefficients.
Aggregator did 26057 substitutions.
Reduced MIP has 55670 rows, 47364 columns, and 152047 nonzeros.
Reduced MIP has 18781 binaries, 0 generals, 0 SOSs, and 0 indicators.
Presolve time = 0.61 sec. (338.32 ticks)
Probing fixed 760 vars, tightened 8716 bounds.
Probing time = 0.45 sec. (16.09 ticks)
Tried aggregator 2 times.
MIP Presolve eliminated 1749 rows and 1556 columns.
MIP Presolve modified 7178 coefficients.
Aggregator did 98 substitutions.
Reduced MIP has 53823 rows, 45710 columns, and 146567 nonzeros.
Reduced MIP has 18016 binaries, 0 generals, 0 SOSs, and 0 indicators.
Presolve time = 0.30 sec. (271.27 ticks)
Probing fixed 2 vars, tightened 137 bounds.
Probing time = 0.63 sec. (19.76 ticks)
Clique table members: 92673.
MIP emphasis: balance optimality and feasibility.
MIP search method: dynamic search.
Parallel mode: opportunistic, using up to 32 threads.
Root relaxation solution time = 1.28 sec. (2218.92 ticks)

        Nodes                                         Cuts/
   Node  Left     Objective  IInf  Best Integer    Best Bound    ItCnt     Gap

      0     0        0.0000     9                      0.0000    10335         
*     0+    0                            0.0000        0.0000             0.00%
      0     0        cutoff              0.0000        0.0000    10335    0.00%
Elapsed time = 4.03 sec. (3367.22 ticks, tree = 0.01 MB, solutions = 1)

Root node processing (before b&c):
  Real time             =    4.06 sec. (3371.21 ticks)
Parallel b&c, 32 threads:
  Real time             =    0.00 sec. (0.00 ticks)
  Sync time (average)   =    0.00 sec.
  Wait time (average)   =    0.00 sec.
                          ------------
Total (root+branch&cut) =    4.06 sec. (3371.21 ticks)

Solution pool: 1 solution saved.

MIP - Integer optimal solution:  Objective =  0.0000000000e+00
Solution time =    4.11 sec.  Iterations = 10335  Nodes = 0
Deterministic time = 3371.52 ticks  (820.52 ticks/sec)

CPLEX> Incumbent solution written to file 'C:\Users\llavin\Desktop\test85\logs\tmp_o1a19bt.cplex.sol'.
CPLEX> NOTE: no warmstart specified for MIP iteration, default behavior is true
NOTE: resolving with all competitive generators using storage-only solution to warmstart
Solving...

Welcome to IBM(R) ILOG(R) CPLEX(R) Interactive Optimizer 12.9.0.0
  with Simplex, Mixed Integer & Barrier Optimizers
5725-A06 5725-A29 5724-Y48 5724-Y49 5724-Y54 5724-Y55 5655-Y21
Copyright IBM Corp. 1988, 2019.  All Rights Reserved.

Type 'help' for a list of available commands.
Type 'help' followed by a command name for more
information on commands.

CPLEX> Logfile 'cplex.log' closed.
Logfile 'C:\Users\llavin\Desktop\test85\logs\tmp3ol_ytq_.cplex.log' open.
CPLEX> New value for parallel optimization mode: -1
CPLEX> New value for mixed integer optimality gap tolerance: 0.001
CPLEX> New value for deterministic time limit in ticks: 100000
CPLEX> Problem 'C:\Users\llavin\Desktop\test85\logs\tmp07z9bhx9.pyomo.lp' read.
Read time = 0.53 sec. (27.92 ticks)
CPLEX> MIP start file 'C:\Users\llavin\Desktop\test85\logs\tmppg5dxsd_.cplex.mst' read.
CPLEX> Problem name         : C:\Users\llavin\Desktop\test85\logs\tmp07z9bhx9.pyomo.lp
Objective sense      : Maximize
Variables            :  109219  [Nneg: 1,  Box: 45494,  Free: 8928,
                                 Binary: 54796]
Objective nonzeros   :   20450
Linear constraints   :  246995  [Less: 82866,  Greater: 118424,  Equal: 45705]
  Nonzeros           :  582461
  RHS nonzeros       :  136272

Variables            : Min LB: -5000.000        Max UB: 1000000.       
Objective nonzeros   : Min   : 0.1944444        Max   : 2500.000       
Linear constraints   :
  Nonzeros           : Min   : 0.1944444        Max   : 1000000.       
  RHS nonzeros       : Min   : 0.1944444        Max   : 1000000.       
CPLEX> CPXPARAM_Parallel                                -1
CPXPARAM_DetTimeLimit                            100000
CPXPARAM_MIP_Tolerances_MIPGap                   0.001
1 of 1 MIP starts provided solutions.
MIP start 'm1' defined initial solution with objective 0.0000.
Tried aggregator 3 times.
MIP Presolve eliminated 173005 rows and 35414 columns.
MIP Presolve added 7737 rows and 0 columns.
MIP Presolve modified 52182 coefficients.
Aggregator did 26057 substitutions.
Reduced MIP has 55670 rows, 47364 columns, and 152047 nonzeros.
Reduced MIP has 18781 binaries, 0 generals, 0 SOSs, and 0 indicators.
Presolve time = 0.61 sec. (339.06 ticks)
Probing fixed 760 vars, tightened 8716 bounds.
Probing time = 0.45 sec. (16.09 ticks)
Tried aggregator 2 times.
MIP Presolve eliminated 1749 rows and 1556 columns.
MIP Presolve modified 7178 coefficients.
Aggregator did 98 substitutions.
Reduced MIP has 53823 rows, 45710 columns, and 146567 nonzeros.
Reduced MIP has 18016 binaries, 0 generals, 0 SOSs, and 0 indicators.
Presolve time = 0.30 sec. (271.28 ticks)
Probing fixed 2 vars, tightened 137 bounds.
Probing time = 0.66 sec. (19.92 ticks)
Clique table members: 92522.
MIP emphasis: balance optimality and feasibility.
MIP search method: dynamic search.
Parallel mode: opportunistic, using up to 32 threads.
Root relaxation solution time = 1.44 sec. (2430.05 ticks)

        Nodes                                         Cuts/
   Node  Left     Objective  IInf  Best Integer    Best Bound    ItCnt     Gap

*     0+    0                            0.0000   1.40902e+07              --- 
      0     0      396.7713   110        0.0000      396.7713    12457     --- 
      0     0      396.7713    56        0.0000     Cuts: 353    12604     --- 
*     0+    0                            0.0000      396.7713              --- 
      0     0      396.7713    60        0.0000     Cuts: 109    12642     --- 
      0     0      396.7713    53        0.0000     Cuts: 246    12701     --- 
      0     0      396.7713    59        0.0000     Cuts: 148    12746     --- 
      0     5        cutoff              0.0000      Cuts: 17    12849     --- 
Elapsed time = 11.92 sec. (7262.80 ticks, tree = 0.02 MB, solutions = 2)
    115     2        cutoff              0.0000       58.7835    16348     --- 
    243     7       58.7835    22        0.0000       54.9798    15702     --- 
    302     3        cutoff              0.0000       54.9798    16328     --- 

Implied bound cuts applied:  57
Flow cuts applied:  31
Mixed integer rounding cuts applied:  31
Gomory fractional cuts applied:  51

Root node processing (before b&c):
  Real time             =    8.95 sec. (7233.11 ticks)
Parallel b&c, 32 threads:
  Real time             =   11.31 sec. (880.64 ticks)
  Sync time (average)   =    8.84 sec.
  Wait time (average)   =    0.00 sec.
                          ------------
Total (root+branch&cut) =   20.27 sec. (8113.75 ticks)

Solution pool: 2 solutions saved.

MIP - Integer optimal solution:  Objective =  2.1429118308e-06
Solution time =   20.30 sec.  Iterations = 16500  Nodes = 312
Deterministic time = 8114.07 ticks  (399.77 ticks/sec)

CPLEX> Incumbent solution written to file 'C:\Users\llavin\Desktop\test85\logs\tmphvyx8_xm.cplex.sol'.
CPLEX> Exporting results... 
